
Gurobi 6.5.2 (linux64) logging started Sun Sep 18 18:41:09 2016


Gurobi 6.5.2 (linux64) logging started Sun Sep 18 18:41:09 2016

Optimize a model with 101 rows, 418 columns and 913 nonzeros
Coefficient statistics:
  Matrix range    [1e+00, 2e+00]
  Objective range [2e+00, 1e+02]
  Bounds range    [1e+00, 1e+00]
  RHS range       [1e+00, 1e+00]
Presolve removed 35 rows and 14 columns
Presolve time: 0.00s
Presolved: 66 rows, 404 columns, 817 nonzeros
Variable types: 0 continuous, 404 integer (404 binary)

Root relaxation: objective 1.067500e+03, 77 iterations, 0.00 seconds

    Nodes    |    Current Node    |     Objective Bounds      |     Work
 Expl Unexpl |  Obj  Depth IntInf | Incumbent    BestBd   Gap | It/Node Time

     0     0 1067.50000    0    4          - 1067.50000      -     -    0s
     0     0 1080.00000    0    2          - 1080.00000      -     -    0s
     0     0 1080.83333    0   14          - 1080.83333      -     -    0s
H    0     0                    1128.0000000 1080.83333  4.18%     -    0s
     0     0 1088.44444    0   30 1128.00000 1088.44444  3.51%     -    0s
     0     0 1088.50000    0   12 1128.00000 1088.50000  3.50%     -    0s
     0     0 1088.50000    0    2 1128.00000 1088.50000  3.50%     -    0s
     0     0 1088.50000    0    6 1128.00000 1088.50000  3.50%     -    0s
     0     0 1088.50000    0   14 1128.00000 1088.50000  3.50%     -    0s
     0     0 1088.50000    0   17 1128.00000 1088.50000  3.50%     -    0s
     0     0 1088.50000    0   26 1128.00000 1088.50000  3.50%     -    0s
     0     0 1088.67568    0   31 1128.00000 1088.67568  3.49%     -    0s
     0     0 1088.88889    0   30 1128.00000 1088.88889  3.47%     -    0s
     0     2 1088.88889    0   30 1128.00000 1088.88889  3.47%     -    0s
*  125    61              27    1123.0000000 1091.41667  2.81%   3.4    0s
*  177     2              11    1103.0000000 1091.50000  1.04%   3.4    0s
*  323     8              13    1098.0000000 1092.00000  0.55%   3.9    0s

Cutting planes:
  Gomory: 2
  Cover: 13
  Zero half: 1
  Lazy constraints: 33

Explored 624 nodes (2705 simplex iterations) in 0.11 seconds
Thread count was 8 (of 8 available processors)

Optimal solution found (tolerance 1.00e-04)
Best objective 1.098000000000e+03, best bound 1.098000000000e+03, gap 0.0%
